param n := 60;
param c := 10000
param : V : p w :=
   0	 376	 366
   1	 278	 268
   2	 376	 366
   3	 440	 430
   4	 273	 263
   5	 317	 307
   6	 424	 414
   7	 297	 287
   8	 309	 299
   9	 505	 495
  10	 261	 251
  11	 264	 254
  12	 484	 474
  13	 262	 252
  14	 284	 274
  15	 380	 370
  16	 279	 269
  17	 371	 361
  18	 483	 473
  19	 262	 252
  20	 285	 275
  21	 482	 472
  22	 269	 259
  23	 279	 269
  24	 454	 444
  25	 268	 258
  26	 308	 298
  27	 449	 439
  28	 283	 273
  29	 298	 288
  30	 455	 445
  31	 282	 272
  32	 293	 283
  33	 429	 419
  34	 271	 261
  35	 330	 320
  36	 373	 363
  37	 281	 271
  38	 376	 366
  39	 365	 355
  40	 283	 273
  41	 382	 372
  42	 476	 466
  43	 272	 262
  44	 282	 272
  45	 367	 357
  46	 302	 292
  47	 361	 351
  48	 405	 395
  49	 265	 255
  50	 360	 350
  51	 360	 350
  52	 313	 303
  53	 357	 347
  54	 460	 450
  55	 262	 252
  56	 308	 298
  57	 420	 410
  58	 285	 275
  59	 325	 315
;

set E :=
   0	   5
   0	   7
   0	   8
   0	   9
   0	  20
   0	  32
   0	  36
   0	  37
   0	  40
   0	  46
   0	  55
   1	   2
   1	   3
   1	   5
   1	   6
   1	  15
   1	  17
   1	  19
   1	  24
   1	  38
   1	  42
   1	  43
   1	  47
   1	  50
   1	  51
   1	  54
   1	  55
   1	  59
   2	  36
   2	  40
   2	  44
   2	  55
   2	  56
   2	  59
   3	   5
   3	  20
   3	  21
   3	  28
   3	  29
   3	  32
   3	  35
   3	  39
   3	  42
   3	  43
   3	  48
   3	  52
   3	  56
   4	  10
   4	  14
   4	  16
   4	  31
   4	  33
   4	  35
   4	  42
   4	  45
   5	  12
   5	  17
   5	  19
   5	  27
   5	  28
   5	  39
   5	  45
   5	  47
   5	  50
   5	  52
   5	  54
   6	  12
   6	  14
   6	  25
   6	  27
   6	  45
   6	  48
   6	  58
   7	  13
   7	  16
   7	  22
   7	  30
   7	  31
   7	  32
   7	  33
   7	  39
   7	  45
   7	  47
   7	  48
   7	  57
   8	  13
   8	  14
   8	  15
   8	  18
   8	  24
   8	  35
   8	  42
   9	  10
   9	  12
   9	  15
   9	  18
   9	  21
   9	  28
   9	  32
   9	  36
   9	  45
   9	  49
   9	  52
   9	  54
  10	  14
  10	  15
  10	  17
  10	  25
  10	  27
  10	  33
  10	  42
  10	  44
  10	  45
  10	  52
  10	  53
  10	  58
  11	  14
  11	  15
  11	  20
  11	  21
  11	  23
  11	  24
  11	  27
  11	  35
  11	  39
  11	  40
  11	  41
  11	  48
  11	  51
  11	  55
  11	  57
  12	  13
  12	  16
  12	  22
  12	  23
  12	  30
  12	  42
  12	  44
  12	  47
  13	  20
  13	  21
  13	  29
  13	  30
  13	  32
  13	  33
  13	  34
  13	  38
  13	  43
  13	  54
  13	  56
  14	  19
  14	  21
  14	  22
  14	  33
  14	  34
  14	  43
  14	  44
  14	  46
  14	  54
  15	  17
  15	  32
  15	  36
  15	  48
  15	  51
  15	  52
  15	  54
  16	  35
  16	  45
  16	  46
  16	  48
  16	  54
  16	  58
  17	  20
  17	  27
  17	  28
  17	  32
  17	  35
  17	  37
  17	  38
  17	  41
  17	  43
  17	  48
  17	  57
  18	  23
  18	  31
  18	  44
  18	  51
  18	  54
  18	  56
  19	  29
  19	  30
  19	  32
  19	  36
  19	  42
  19	  45
  19	  46
  19	  47
  19	  49
  19	  50
  20	  24
  20	  43
  20	  45
  20	  50
  20	  58
  21	  25
  21	  26
  21	  28
  21	  29
  21	  30
  21	  34
  21	  38
  21	  40
  21	  43
  21	  45
  21	  52
  21	  55
  21	  56
  22	  30
  22	  33
  22	  37
  22	  43
  22	  45
  22	  50
  22	  52
  23	  26
  23	  31
  23	  32
  23	  38
  23	  44
  23	  51
  23	  54
  23	  56
  23	  59
  24	  30
  24	  32
  24	  33
  24	  37
  24	  38
  24	  45
  24	  51
  24	  55
  25	  29
  25	  31
  25	  55
  26	  30
  26	  33
  26	  41
  26	  42
  26	  43
  26	  47
  26	  56
  27	  33
  27	  36
  27	  41
  27	  42
  27	  44
  27	  47
  27	  52
  27	  54
  27	  58
  28	  34
  28	  41
  28	  44
  28	  46
  29	  30
  29	  34
  29	  36
  29	  37
  29	  41
  29	  43
  29	  45
  29	  46
  29	  58
  30	  36
  30	  37
  30	  38
  30	  40
  30	  43
  30	  44
  30	  47
  30	  50
  30	  51
  30	  53
  31	  40
  31	  42
  31	  44
  31	  58
  32	  34
  32	  35
  32	  38
  32	  39
  32	  40
  32	  42
  32	  49
  32	  58
  33	  39
  33	  41
  33	  54
  33	  59
  34	  38
  34	  47
  34	  55
  35	  36
  35	  43
  35	  44
  35	  52
  35	  57
  36	  41
  36	  43
  36	  47
  36	  49
  37	  38
  37	  46
  38	  41
  38	  42
  38	  46
  38	  50
  39	  42
  39	  55
  39	  58
  40	  43
  40	  45
  40	  47
  40	  50
  41	  46
  41	  48
  41	  55
  41	  56
  42	  45
  42	  52
  43	  45
  43	  53
  43	  55
  44	  45
  44	  56
  44	  58
  46	  51
  46	  54
  46	  56
  47	  49
  47	  51
  47	  52
  47	  54
  48	  55
  48	  56
  48	  57
  48	  59
  49	  52
  49	  53
  49	  58
  50	  53
  50	  57
  51	  52
  51	  53
  51	  56
  52	  59
  53	  57
  54	  56
  54	  58
  56	  59
;
